peakDumbCharging = 29600; 
Machine = anon_enum(16); 
machineSpeed = [3700,3700,3700,3700,3700,3700,3700,3700,3700,3700,3700,3700,3700,3700,3700,3700]; 
machineLoad = [3700,3700,3700,3700,3700,3700,3700,3700,3700,3700,3700,3700,3700,3700,3700,3700]; 
Car = anon_enum(26); 
demandCar = [1480,5640,11600,4720,3520,3960,10800,3120,6920,8320,5200,5520,9360,20760,13240,6680,37360,1800,4760,16600,9440,4080,4120,12960,11200,30840]; 
arrivalCar = [74,68,65,64,64,61,60,58,58,58,58,57,56,56,54,47,44,43,40,38,37,37,36,24,23,21]; 
departureCar = [76,70,72,70,66,63,65,61,63,61,60,60,60,64,64,50,60,44,46,44,41,41,39,45,27,41]; 
